Welcome to the CBC MILP Solver 
Version: Trunk
Build Date: Apr 16 2020 

Starting solution of the Linear programming relaxation problem using Primal Simplex

Using Python-MIP package version 1.8.1
Machines:  4 Jobs:  4
Order: 
Job  0 : machine 0 ( 10 ) machine 3 ( 1 ) machine 2 ( 6 ) machine 1 ( 7 ) 
Job  1 : machine 0 ( 1 ) machine 3 ( 7 ) machine 1 ( 5 ) machine 2 ( 8 ) 
Job  2 : machine 3 ( 9 ) machine 2 ( 3 ) machine 1 ( 7 ) machine 0 ( 1 ) 
Job  3 : machine 1 ( 7 ) machine 3 ( 3 ) machine 0 ( 9 ) machine 2 ( 10 ) 
K:  44
Job  0 , e: machine  0 ( 0 ) machine  1 ( 17 ) machine  2 ( 11 ) machine  3 ( 10 ) 
Job  1 , e: machine  0 ( 0 ) machine  1 ( 8 ) machine  2 ( 13 ) machine  3 ( 1 ) 
Job  2 , e: machine  0 ( 19 ) machine  1 ( 12 ) machine  2 ( 9 ) machine  3 ( 0 ) 
Job  3 , e: machine  0 ( 10 ) machine  1 ( 0 ) machine  2 ( 19 ) machine  3 ( 7 ) 
Job  0 , f: machine  0 ( 14 ) machine  1 ( 0 ) machine  2 ( 7 ) machine  3 ( 13 ) 
Job  1 , f: machine  0 ( 20 ) machine  1 ( 8 ) machine  2 ( 0 ) machine  3 ( 13 ) 
Job  2 , f: machine  0 ( 0 ) machine  1 ( 1 ) machine  2 ( 8 ) machine  3 ( 11 ) 
Job  3 , f: machine  0 ( 10 ) machine  1 ( 22 ) machine  2 ( 0 ) machine  3 ( 19 ) 
EST and LST:
Job: 0 Machine: 0 EST: 0 LST: 20
Job: 0 Machine: 1 EST: 17 LST: 37
Job: 0 Machine: 2 EST: 11 LST: 31
Job: 0 Machine: 3 EST: 10 LST: 30
Job: 1 Machine: 0 EST: 0 LST: 23
Job: 1 Machine: 1 EST: 8 LST: 31
Job: 1 Machine: 2 EST: 13 LST: 36
Job: 1 Machine: 3 EST: 1 LST: 24
Job: 2 Machine: 0 EST: 19 LST: 43
Job: 2 Machine: 1 EST: 12 LST: 36
Job: 2 Machine: 2 EST: 9 LST: 33
Job: 2 Machine: 3 EST: 0 LST: 24
Job: 3 Machine: 0 EST: 10 LST: 25
Job: 3 Machine: 1 EST: 0 LST: 15
Job: 3 Machine: 2 EST: 19 LST: 34
Job: 3 Machine: 3 EST: 7 LST: 22
Order:
Job: 0 Machine: 0 = 0 
Job: 0 Machine: 1 = 3 
Job: 0 Machine: 2 = 2 
Job: 0 Machine: 3 = 1 
Job: 1 Machine: 0 = 0 
Job: 1 Machine: 1 = 2 
Job: 1 Machine: 2 = 3 
Job: 1 Machine: 3 = 1 
Job: 2 Machine: 0 = 3 
Job: 2 Machine: 1 = 2 
Job: 2 Machine: 2 = 1 
Job: 2 Machine: 3 = 0 
Job: 3 Machine: 0 = 2 
Job: 3 Machine: 1 = 0 
Job: 3 Machine: 2 = 3 
Job: 3 Machine: 3 = 1 
Distances:
Job 0, Machine 0 -> Machine 3: distance 10
Job 0, Machine 0 -> Machine 2: distance 11
Job 0, Machine 0 -> Machine 1: distance 17
Job 0, Machine 3 -> Machine 2: distance 1
Job 0, Machine 3 -> Machine 1: distance 7
Job 0, Machine 2 -> Machine 1: distance 6
Job 1, Machine 0 -> Machine 3: distance 1
Job 1, Machine 0 -> Machine 1: distance 8
Job 1, Machine 0 -> Machine 2: distance 13
Job 1, Machine 3 -> Machine 1: distance 7
Job 1, Machine 3 -> Machine 2: distance 12
Job 1, Machine 1 -> Machine 2: distance 5
Job 2, Machine 3 -> Machine 2: distance 9
Job 2, Machine 3 -> Machine 1: distance 12
Job 2, Machine 3 -> Machine 0: distance 19
Job 2, Machine 2 -> Machine 1: distance 3
Job 2, Machine 2 -> Machine 0: distance 10
Job 2, Machine 1 -> Machine 0: distance 7
Job 3, Machine 1 -> Machine 3: distance 7
Job 3, Machine 1 -> Machine 0: distance 10
Job 3, Machine 1 -> Machine 2: distance 19
Job 3, Machine 3 -> Machine 0: distance 3
Job 3, Machine 3 -> Machine 2: distance 12
Job 3, Machine 0 -> Machine 2: distance 9
McCormic linearization
[(0, 1), (0, 0), (3, 0), (3, 1), (2, 1), (2, 0), (1, 0), (1, 1)]
obj:  0.5999999999999999
solutions:  1
+ x(0,0) + 0.09999999999999998x(1,0) 
C:  29.0
x(0,0) = 0.73	 x(0,1) = 22.00	 x(0,2) = 11.73	 x(0,3) = 10.73	 
x(1,0) = 2.73	 x(1,1) = 10.73	 x(1,2) = 15.73	 x(1,3) = 3.73	 
x(2,0) = 22.73	 x(2,1) = 15.73	 x(2,2) = 12.73	 x(2,3) = 3.73	 
x(3,0) = 10.00	 x(3,1) = 0.00	 x(3,2) = 19.00	 x(3,3) = 7.00	 
y(0,1,0) = 0.13	 y(1,0,0) = 0.87	 
y(0,2,0) = 0.64	 y(2,0,0) = 0.36	 
y(0,3,0) = 0.96	 y(3,0,0) = 0.04	 
y(1,2,0) = 0.48	 y(2,1,0) = 0.52	 
y(1,3,0) = 0.74	 y(3,1,0) = 0.26	 
y(2,3,0) = 0.00	 y(3,2,0) = 1.00	 
y(0,1,1) = 0.14	 y(1,0,1) = 0.86	 
y(0,2,1) = 0.03	 y(2,0,1) = 0.97	 
y(0,3,1) = 0.00	 y(3,0,1) = 1.00	 
y(1,2,1) = 0.34	 y(2,1,1) = 0.66	 
y(1,3,1) = 0.16	 y(3,1,1) = 0.84	 
y(2,3,1) = 0.00	 y(3,2,1) = 1.00	 
y(0,1,2) = 0.36	 y(1,0,2) = 0.64	 
y(0,2,2) = 0.39	 y(2,0,2) = 0.61	 
y(0,3,2) = 1.00	 y(3,0,2) = 0.00	 
y(1,2,2) = 0.00	 y(2,1,2) = 1.00	 
y(1,3,2) = 0.43	 y(3,1,2) = 0.57	 
y(2,3,2) = 0.85	 y(3,2,2) = 0.15	 
y(0,1,3) = 0.00	 y(1,0,3) = 1.00	 
y(0,2,3) = 0.09	 y(2,0,3) = 0.91	 
y(0,3,3) = 0.04	 y(3,0,3) = 0.96	 
y(1,2,3) = 0.28	 y(2,1,3) = 0.72	 
y(1,3,3) = 0.26	 y(3,1,3) = 0.74	 
y(2,3,3) = 0.25	 y(3,2,3) = 0.75	 
obj:  0.9174311926605506
solutions:  1
+ 0.09174311926605479x(0,0) + 0.08256880733944957x(3,0) + 0.009174311926605488x(1,0) 
[(0, 1), (0, 0), (3, 0), (3, 1), (2, 1), (2, 0), (1, 0), (1, 1)]
cliques:  1 mip: 97
C:  29.0
x(0,0) = 1.82	 x(0,1) = 22.00	 x(0,2) = 12.82	 x(0,3) = 11.82	 
x(1,0) = 0.82	 x(1,1) = 8.82	 x(1,2) = 13.82	 x(1,3) = 1.82	 
x(2,0) = 22.33	 x(2,1) = 15.33	 x(2,2) = 12.33	 x(2,3) = 3.33	 
x(3,0) = 10.00	 x(3,1) = 0.00	 x(3,2) = 19.00	 x(3,3) = 7.00	 
y(0,1,0) = 0.00	 y(1,0,0) = 1.00	 
y(0,2,0) = 0.68	 y(2,0,0) = 0.32	 
y(0,3,0) = 0.91	 y(3,0,0) = 0.09	 
y(1,2,0) = 0.51	 y(2,1,0) = 0.49	 
y(1,3,0) = 0.66	 y(3,1,0) = 0.34	 
y(2,3,0) = 0.00	 y(3,2,0) = 1.00	 
y(0,1,1) = 0.11	 y(1,0,1) = 0.89	 
y(0,2,1) = 0.01	 y(2,0,1) = 0.99	 
y(0,3,1) = 0.00	 y(3,0,1) = 1.00	 
y(1,2,1) = 0.39	 y(2,1,1) = 0.61	 
y(1,3,1) = 0.08	 y(3,1,1) = 0.92	 
y(2,3,1) = 0.00	 y(3,2,1) = 1.00	 
y(0,1,2) = 0.27	 y(1,0,2) = 0.73	 
y(0,2,2) = 0.29	 y(2,0,2) = 0.71	 
y(0,3,2) = 1.00	 y(3,0,2) = 0.00	 
y(1,2,2) = 0.51	 y(2,1,2) = 0.49	 
y(1,3,2) = 0.49	 y(3,1,2) = 0.51	 
y(2,3,2) = 0.83	 y(3,2,2) = 0.17	 
y(0,1,3) = 0.35	 y(1,0,3) = 0.65	 
y(0,2,3) = 0.02	 y(2,0,3) = 0.98	 
y(0,3,3) = 0.09	 y(3,0,3) = 0.91	 
y(1,2,3) = 0.33	 y(2,1,3) = 0.67	 
y(1,3,3) = 0.34	 y(3,1,3) = 0.66	 
y(2,3,3) = 0.27	 y(3,2,3) = 0.73	 
obj:  0.7815957055966035
solutions:  1
+ 0.014930399640772337x(1,2) + 0.02346205657835653x(3,2) + 0.010103277952402335x(0,2) 
[(1, 2), (0, 1), (3, 2), (0, 0), (3, 0), (0, 2), (3, 1), (2, 1), (2, 2), (1, 0), (1, 1)]
cliques:  1 mip: 131
C:  30.62962962962963
x(0,0) = 0.84	 x(0,1) = 23.63	 x(0,2) = 17.63	 x(0,3) = 16.63	 
x(1,0) = 4.95	 x(1,1) = 17.63	 x(1,2) = 22.63	 x(1,3) = 10.63	 
x(2,0) = 24.98	 x(2,1) = 17.98	 x(2,2) = 14.98	 x(2,3) = 5.98	 
x(3,0) = 10.63	 x(3,1) = 0.63	 x(3,2) = 20.63	 x(3,3) = 7.63	 
y(0,1,0) = 0.30	 y(1,0,0) = 0.70	 
y(0,2,0) = 0.57	 y(2,0,0) = 0.43	 
y(0,3,0) = 0.99	 y(3,0,0) = 0.01	 
y(1,2,0) = 1.00	 y(2,1,0) = 0.00	 
y(1,3,0) = 0.81	 y(3,1,0) = 0.19	 
y(2,3,0) = 0.00	 y(3,2,0) = 1.00	 
y(0,1,1) = 0.39	 y(1,0,1) = 0.61	 
y(0,2,1) = 0.05	 y(2,0,1) = 0.95	 
y(0,3,1) = 0.00	 y(3,0,1) = 1.00	 
y(1,2,1) = 0.21	 y(2,1,1) = 0.79	 
y(1,3,1) = 0.39	 y(3,1,1) = 0.61	 
y(2,3,1) = 0.00	 y(3,2,1) = 1.00	 
y(0,1,2) = 0.39	 y(1,0,2) = 0.61	 
y(0,2,2) = 0.34	 y(2,0,2) = 0.66	 
y(0,3,2) = 0.83	 y(3,0,2) = 0.17	 
y(1,2,2) = 0.21	 y(2,1,2) = 0.79	 
y(1,3,2) = 0.26	 y(3,1,2) = 0.74	 
y(2,3,2) = 0.88	 y(3,2,2) = 0.12	 
y(0,1,3) = 0.39	 y(1,0,3) = 0.61	 
y(0,2,3) = 0.08	 y(2,0,3) = 0.92	 
y(0,3,3) = 0.30	 y(3,0,3) = 0.70	 
y(1,2,3) = 0.14	 y(2,1,3) = 0.86	 
y(1,3,3) = 0.00	 y(3,1,3) = 1.00	 
y(2,3,3) = 0.19	 y(3,2,3) = 0.81	 
obj:  0.9903510640610026
solutions:  1
+ 0.005025125628140705x(0,0) + 0.09045226130653267x(3,0) + 0.0050251256281407x(1,0) 
[(0, 1), (0, 0), (3, 0), (3, 1), (2, 1), (2, 0), (1, 0), (1, 1)]
cliques:  1 mip: 173
C:  33.17974253096915
x(0,0) = 7.94	 x(0,1) = 25.51	 x(0,2) = 19.30	 x(0,3) = 17.94	 
x(1,0) = 11.06	 x(1,1) = 19.06	 x(1,2) = 24.06	 x(1,3) = 12.06	 
x(2,0) = 26.18	 x(2,1) = 19.18	 x(2,2) = 16.18	 x(2,3) = 7.18	 
x(3,0) = 10.00	 x(3,1) = 0.00	 x(3,2) = 19.00	 x(3,3) = 7.00	 
y(0,1,0) = 0.27	 y(1,0,0) = 0.73	 
y(0,2,0) = 0.44	 y(2,0,0) = 0.56	 
y(0,3,0) = 0.33	 y(3,0,0) = 0.67	 
y(1,2,0) = 1.00	 y(2,1,0) = 0.00	 
y(1,3,0) = 0.31	 y(3,1,0) = 0.69	 
y(2,3,0) = 0.00	 y(3,2,0) = 1.00	 
y(0,1,1) = 0.20	 y(1,0,1) = 0.80	 
y(0,2,1) = 0.03	 y(2,0,1) = 0.97	 
y(0,3,1) = 0.00	 y(3,0,1) = 1.00	 
y(1,2,1) = 0.20	 y(2,1,1) = 0.80	 
y(1,3,1) = -0.00	 y(3,1,1) = 1.00	 
y(2,3,1) = 0.00	 y(3,2,1) = 1.00	 
y(0,1,2) = 0.91	 y(1,0,2) = 0.09	 
y(0,2,2) = 0.03	 y(2,0,2) = 0.97	 
y(0,3,2) = 0.29	 y(3,0,2) = 0.71	 
y(1,2,2) = 0.20	 y(2,1,2) = 0.80	 
y(1,3,2) = 0.48	 y(3,1,2) = 0.52	 
y(2,3,2) = 0.99	 y(3,2,2) = 0.01	 
y(0,1,3) = 0.33	 y(1,0,3) = 0.67	 
y(0,2,3) = 0.08	 y(2,0,3) = 0.92	 
y(0,3,3) = 0.31	 y(3,0,3) = 0.69	 
y(1,2,3) = 0.13	 y(2,1,3) = 0.87	 
y(1,3,3) = -0.00	 y(3,1,3) = 1.00	 
y(2,3,3) = 0.11	 y(3,2,3) = 0.89	 
obj:  0.9727165492225336
solutions:  1
+ 0.005524861878453033x(1,2) + 0.04419889502762431x(3,2) 
[(1, 2), (0, 1), (3, 2), (0, 0), (3, 0), (0, 2), (3, 1), (2, 1), (2, 2), (1, 0), (1, 1)]
cliques:  1 mip: 217
C:  34.333333333332845
x(0,0) = 7.20	 x(0,1) = 24.33	 x(0,2) = 18.33	 x(0,3) = 17.20	 
x(1,0) = 3.33	 x(1,1) = 11.33	 x(1,2) = 16.33	 x(1,3) = 4.33	 
x(2,0) = 27.20	 x(2,1) = 20.20	 x(2,2) = 17.20	 x(2,3) = 8.20	 
x(3,0) = 10.47	 x(3,1) = 0.44	 x(3,2) = 24.33	 x(3,3) = 7.44	 
y(0,1,0) = 0.03	 y(1,0,0) = 0.97	 
y(0,2,0) = 0.51	 y(2,0,0) = 0.49	 
y(0,3,0) = 0.47	 y(3,0,0) = 0.53	 
y(1,2,0) = 1.00	 y(2,1,0) = 0.00	 
y(1,3,0) = 1.00	 y(3,1,0) = 0.00	 
y(2,3,0) = 0.00	 y(3,2,0) = 1.00	 
y(0,1,1) = 0.01	 y(1,0,1) = 0.99	 
y(0,2,1) = 0.11	 y(2,0,1) = 0.89	 
y(0,3,1) = 0.00	 y(3,0,1) = 1.00	 
y(1,2,1) = 0.45	 y(2,1,1) = 0.55	 
y(1,3,1) = 0.28	 y(3,1,1) = 0.72	 
y(2,3,1) = 0.00	 y(3,2,1) = 1.00	 
y(0,1,2) = 0.59	 y(1,0,2) = 0.41	 
y(0,2,2) = 0.19	 y(2,0,2) = 0.81	 
y(0,3,2) = 1.00	 y(3,0,2) = -0.00	 
y(1,2,2) = 0.45	 y(2,1,2) = 0.55	 
y(1,3,2) = 1.00	 y(3,1,2) = 0.00	 
y(2,3,2) = 0.81	 y(3,2,2) = 0.19	 
y(0,1,3) = 0.00	 y(1,0,3) = 1.00	 
y(0,2,3) = 0.00	 y(2,0,3) = 1.00	 
y(0,3,3) = 0.55	 y(3,0,3) = 0.45	 
y(1,2,3) = 0.40	 y(2,1,3) = 0.60	 
y(1,3,3) = 0.25	 y(3,1,3) = 0.75	 
y(2,3,3) = 0.09	 y(3,2,3) = 0.91	 
obj:  0.9999999999999998
erro
[(0, 1), (0, 0), (3, 0), (3, 1), (2, 1), (2, 0), (1, 0), (1, 1)]
cliques:  0 mip: 170
C:  35.0
x(0,0) = 4.87	 x(0,1) = 25.44	 x(0,2) = 19.25	 x(0,3) = 14.87	 
x(1,0) = 1.56	 x(1,1) = 10.16	 x(1,2) = 16.24	 x(1,3) = 3.16	 
x(2,0) = 25.44	 x(2,1) = 18.44	 x(2,2) = 15.44	 x(2,3) = 2.62	 
x(3,0) = 10.70	 x(3,1) = 0.70	 x(3,2) = 24.00	 x(3,3) = 7.70	 
y(0,1,0) = 0.07	 y(1,0,0) = 0.93	 
y(0,2,0) = 0.67	 y(2,0,0) = 0.33	 
y(0,3,0) = 0.79	 y(3,0,0) = 0.21	 
y(1,2,0) = 1.00	 y(2,1,0) = 0.00	 
y(1,3,0) = 1.00	 y(3,1,0) = 0.00	 
y(2,3,0) = 0.00	 y(3,2,0) = 1.00	 
y(0,1,1) = 0.07	 y(1,0,1) = 0.93	 
y(0,2,1) = 0.00	 y(2,0,1) = 1.00	 
y(0,3,1) = 0.00	 y(3,0,1) = 1.00	 
y(1,2,1) = 0.44	 y(2,1,1) = 0.56	 
y(1,3,1) = 0.34	 y(3,1,1) = 0.66	 
y(2,3,1) = 0.00	 y(3,2,1) = 1.00	 
y(0,1,2) = 0.17	 y(1,0,2) = 0.83	 
y(0,2,2) = 0.04	 y(2,0,2) = 0.96	 
y(0,3,2) = 0.92	 y(3,0,2) = 0.08	 
y(1,2,2) = 0.39	 y(2,1,2) = 0.61	 
y(1,3,2) = 0.94	 y(3,1,2) = 0.06	 
y(2,3,2) = 0.87	 y(3,2,2) = 0.13	 
y(0,1,3) = 0.09	 y(1,0,3) = 0.91	 
y(0,2,3) = 0.00	 y(2,0,3) = 1.00	 
y(0,3,3) = 0.09	 y(3,0,3) = 0.91	 
y(1,2,3) = 0.26	 y(2,1,3) = 0.74	 
y(1,3,3) = 0.31	 y(3,1,3) = 0.69	 
y(2,3,3) = 0.32	 y(3,2,3) = 0.68	 
obj:  0.5765553905045997
solutions:  1
+ 0.0708215297450425x(1,3) + 0.022662889518413595x(3,3) + 0.0679886685552408x(2,3) 
[(1, 2), (3, 2), (1, 3), (3, 3), (0, 2), (3, 1), (2, 1), (2, 3), (2, 2), (0, 3), (1, 1)]
cliques:  1 mip: 198
C:  35.0
x(0,0) = 3.58	 x(0,1) = 26.22	 x(0,2) = 19.25	 x(0,3) = 14.41	 
x(1,0) = 5.54	 x(1,1) = 13.54	 x(1,2) = 19.05	 x(1,3) = 6.54	 
x(2,0) = 24.73	 x(2,1) = 17.73	 x(2,2) = 14.73	 x(2,3) = 5.38	 
x(3,0) = 10.55	 x(3,1) = 0.55	 x(3,2) = 24.04	 x(3,3) = 7.55	 
y(0,1,0) = 0.20	 y(1,0,0) = 0.80	 
y(0,2,0) = 0.74	 y(2,0,0) = 0.26	 
y(0,3,0) = 0.79	 y(3,0,0) = 0.21	 
y(1,2,0) = 1.00	 y(2,1,0) = 0.00	 
y(1,3,0) = 1.00	 y(3,1,0) = 0.00	 
y(2,3,0) = 0.00	 y(3,2,0) = 1.00	 
y(0,1,1) = 0.05	 y(1,0,1) = 0.95	 
y(0,2,1) = 0.29	 y(2,0,1) = 0.71	 
y(0,3,1) = 0.00	 y(3,0,1) = 1.00	 
y(1,2,1) = 0.44	 y(2,1,1) = 0.56	 
y(1,3,1) = 0.18	 y(3,1,1) = 0.82	 
y(2,3,1) = 0.00	 y(3,2,1) = 1.00	 
y(0,1,2) = 0.39	 y(1,0,2) = 0.61	 
y(0,2,2) = 0.00	 y(2,0,2) = 1.00	 
y(0,3,2) = 0.92	 y(3,0,2) = 0.08	 
y(1,2,2) = 0.24	 y(2,1,2) = 0.76	 
y(1,3,2) = 0.88	 y(3,1,2) = 0.12	 
y(2,3,2) = 0.89	 y(3,2,2) = 0.11	 
y(0,1,3) = 0.12	 y(1,0,3) = 0.88	 
y(0,2,3) = 0.10	 y(2,0,3) = 0.90	 
y(0,3,3) = 0.09	 y(3,0,3) = 0.91	 
y(1,2,3) = 0.25	 y(2,1,3) = 0.75	 
y(1,3,3) = 0.17	 y(3,1,3) = 0.83	 
y(2,3,3) = 0.37	 y(3,2,3) = 0.63	 
obj:  0.8976733842707235
solutions:  1
+ 0.006122448979591843x(1,3) + 0.10010465724751443x(3,3) + 0.014599686028257435x(2,3) + 0.001622187336473055x(0,3) 
[(1, 2), (3, 2), (1, 3), (3, 3), (0, 2), (3, 1), (2, 1), (2, 3), (2, 2), (0, 3), (1, 1)]
cliques:  1 mip: 0
C:  35.0
x(0,0) = 4.94	 x(0,1) = 26.20	 x(0,2) = 19.27	 x(0,3) = 14.94	 
x(1,0) = 1.44	 x(1,1) = 13.57	 x(1,2) = 18.57	 x(1,3) = 6.57	 
x(2,0) = 26.61	 x(2,1) = 19.61	 x(2,2) = 16.61	 x(2,3) = 6.82	 
x(3,0) = 11.35	 x(3,1) = 1.35	 x(3,2) = 23.63	 x(3,3) = 8.35	 
y(0,1,0) = 0.00	 y(1,0,0) = 1.00	 
y(0,2,0) = 0.72	 y(2,0,0) = 0.28	 
y(0,3,0) = 0.82	 y(3,0,0) = 0.18	 
y(1,2,0) = 1.00	 y(2,1,0) = 0.00	 
y(1,3,0) = 1.00	 y(3,1,0) = 0.00	 
y(2,3,0) = 0.00	 y(3,2,0) = 1.00	 
y(0,1,1) = 0.08	 y(1,0,1) = 0.92	 
y(0,2,1) = 0.29	 y(2,0,1) = 0.71	 
y(0,3,1) = 0.00	 y(3,0,1) = 1.00	 
y(1,2,1) = 0.45	 y(2,1,1) = 0.55	 
y(1,3,1) = 0.22	 y(3,1,1) = 0.78	 
y(2,3,1) = 0.00	 y(3,2,1) = 1.00	 
y(0,1,2) = 0.35	 y(1,0,2) = 0.65	 
y(0,2,2) = 0.05	 y(2,0,2) = 0.95	 
y(0,3,2) = 0.91	 y(3,0,2) = 0.09	 
y(1,2,2) = 0.33	 y(2,1,2) = 0.67	 
y(1,3,2) = 0.88	 y(3,1,2) = 0.12	 
y(2,3,2) = 1.00	 y(3,2,2) = 0.00	 
y(0,1,3) = 0.15	 y(1,0,3) = 0.85	 
y(0,2,3) = 0.07	 y(2,0,3) = 0.93	 
y(0,3,3) = 0.14	 y(3,0,3) = 0.86	 
y(1,2,3) = 0.29	 y(2,1,3) = 0.71	 
y(1,3,3) = 0.20	 y(3,1,3) = 0.80	 
y(2,3,3) = 0.32	 y(3,2,3) = 0.68	 
obj:  0.9987210031659045
solutions:  1
+ 0.0013488749761506856x(1,2) + 0.0021919218362448653x(3,2) + 0.0055627781500002076x(1,3) + 0.09183575672329848x(3,3) + 0.0009051661024169043x(0,2) + 0.013062345533848278x(2,3) + 0.0007946825928571599x(0,3) 
[(1, 2), (3, 2), (1, 3), (3, 3), (0, 2), (3, 1), (2, 1), (2, 3), (2, 2), (0, 3), (1, 1)]
cliques:  1 mip: 0
C:  35.0
x(0,0) = 4.94	 x(0,1) = 26.18	 x(0,2) = 19.27	 x(0,3) = 14.94	 
x(1,0) = 1.45	 x(1,1) = 13.59	 x(1,2) = 18.59	 x(1,3) = 6.59	 
x(2,0) = 26.56	 x(2,1) = 19.56	 x(2,2) = 16.56	 x(2,3) = 6.77	 
x(3,0) = 11.37	 x(3,1) = 1.37	 x(3,2) = 23.63	 x(3,3) = 8.37	 
y(0,1,0) = 0.00	 y(1,0,0) = 1.00	 
y(0,2,0) = 0.72	 y(2,0,0) = 0.28	 
y(0,3,0) = 0.82	 y(3,0,0) = 0.18	 
y(1,2,0) = 1.00	 y(2,1,0) = 0.00	 
y(1,3,0) = 1.00	 y(3,1,0) = 0.00	 
y(2,3,0) = 0.00	 y(3,2,0) = 1.00	 
y(0,1,1) = 0.08	 y(1,0,1) = 0.92	 
y(0,2,1) = 0.29	 y(2,0,1) = 0.71	 
y(0,3,1) = 0.00	 y(3,0,1) = 1.00	 
y(1,2,1) = 0.45	 y(2,1,1) = 0.55	 
y(1,3,1) = 0.22	 y(3,1,1) = 0.78	 
y(2,3,1) = 0.00	 y(3,2,1) = 1.00	 
y(0,1,2) = 0.35	 y(1,0,2) = 0.65	 
y(0,2,2) = 0.05	 y(2,0,2) = 0.95	 
y(0,3,2) = 0.91	 y(3,0,2) = 0.09	 
y(1,2,2) = 0.33	 y(2,1,2) = 0.67	 
y(1,3,2) = 0.88	 y(3,1,2) = 0.12	 
y(2,3,2) = 1.00	 y(3,2,2) = 0.00	 
y(0,1,3) = 0.15	 y(1,0,3) = 0.85	 
y(0,2,3) = 0.07	 y(2,0,3) = 0.93	 
y(0,3,3) = 0.14	 y(3,0,3) = 0.86	 
y(1,2,3) = 0.29	 y(2,1,3) = 0.71	 
y(1,3,3) = 0.20	 y(3,1,3) = 0.80	 
y(2,3,3) = 0.32	 y(3,2,3) = 0.68	 
obj:  1.0000000000000002
erro
[(1, 2), (3, 2), (1, 3), (3, 3), (0, 2), (3, 1), (2, 1), (2, 3), (2, 2), (0, 3), (1, 1)]
cliques:  0 mip: 0
iterações: 9 cortes cliques encontrados: 8 mip: 1032 objective:  35.0
Coin0506I Presolve 157 (-171) rows, 90 (-71) columns and 490 (-260) elements
Clp1000I sum of infeasibilities 1.79124e-08 - average 1.14092e-10, 0 fixed columns
Coin0506I Presolve 157 (0) rows, 90 (0) columns and 490 (0) elements
Clp0029I End of values pass after 90 iterations
Clp0000I Optimal - objective value 29
Clp0000I Optimal - objective value 29
Coin0511I After Postsolve, objective 29, infeasibilities - dual 0 (0), primal 0 (0)
Clp0000I Optimal - objective value 29
Clp0000I Optimal - objective value 29
Clp0000I Optimal - objective value 29
Coin0511I After Postsolve, objective 29, infeasibilities - dual 0 (0), primal 0 (0)
Clp0032I Optimal objective 29 - 0 iterations time 0.012, Presolve 0.00, Idiot 0.01
Coin3009W Conflict graph built in 0.000 seconds, density: 0.070%
